 200 78 
 22 20 94 18 95 3 28 92 34 95 16 65 
 78 54 40 30 77 70 47 51 69 78 30 94 
 14 26 2 78 60 89 48 98 64 78 65 77 
 14 84 68 48 82 1 59 46 68 4 96 10 
 2 32 18 24 37 64 88 76 87 10 88 8 
 49 59 57 95 98 77 81 50 55 24 11 79 
 2 21 85 97 30 4 
 25 
 11 14 16 21 23 27 28 30 33 34 35 44 
 46 49 50 51 55 58 61 63 67 69 70 72 
 74 
 33 
 2 7 8 13 14 19 20 21 22 23 24 25 
 31 32 33 34 37 38 39 44 45 46 47 51 
 55 57 59 61 65 67 69 70 73 
 72 
 1 2 3 4 5 6 7 8 9 10 11 13 
 14 15 16 17 18 19 20 21 22 23 24 25 
 26 27 28 29 30 31 33 34 35 36 37 38 
 39 40 41 42 43 44 45 47 48 49 50 51 
 52 53 54 55 56 57 58 59 60 61 62 63 
 64 65 66 67 68 69 71 74 75 76 77 78 
 12 
 2 13 15 20 26 36 38 53 57 58 69 77 
 66 
 1 2 3 4 6 8 9 10 11 12 13 14 
 15 16 17 18 20 21 22 23 24 25 26 27 
 28 29 30 31 32 33 34 35 36 37 38 39 
 40 41 42 43 44 45 47 48 49 50 51 52 
 53 55 57 58 59 60 61 62 63 64 65 67 
 69 71 72 76 77 78 
 48 
 2 3 6 8 9 10 11 13 15 18 20 22 
 23 25 26 27 30 31 32 33 34 35 37 38 
 40 41 42 44 45 46 47 48 51 52 53 54 
 56 57 58 60 62 64 69 70 72 75 76 77 
 78 
 1 2 3 4 5 6 7 8 9 10 11 12 
 13 14 15 16 17 18 19 20 21 22 23 24 
 25 26 27 28 29 30 31 32 33 34 35 36 
 37 38 39 40 41 42 43 44 45 46 47 48 
 49 50 51 52 53 54 55 56 57 58 59 60 
 61 62 63 64 65 66 67 68 69 70 71 72 
 73 74 75 76 77 78 
 6 
 1 4 5 28 52 78 
 54 
 1 2 4 5 11 12 13 14 15 16 17 19 
 20 21 22 24 25 26 27 28 29 31 32 33 
 34 35 36 37 39 40 41 43 44 45 46 47 
 50 52 53 55 56 58 60 61 62 63 65 67 
 68 71 73 75 76 77 
 16 
 5 9 13 15 21 32 36 39 43 51 53 64 
 65 68 76 78 
 75 
 1 2 3 4 5 6 7 8 9 10 11 13 
 14 15 16 17 18 19 20 21 22 23 24 25 
 26 27 28 29 30 31 32 33 34 35 36 37 
 38 39 40 41 42 43 44 45 46 47 49 50 
 51 52 53 54 55 56 57 58 59 60 61 62 
 63 64 65 67 68 69 70 71 72 73 74 75 
 76 77 78 
 38 
 1 2 3 6 7 11 13 15 16 17 20 23 
 25 32 34 36 40 42 43 44 45 47 52 53 
 56 57 58 59 61 62 63 65 69 71 72 73 
 75 76 
 61 
 1 2 3 4 5 6 7 8 12 14 15 16 
 17 19 20 21 23 24 25 26 28 29 30 32 
 33 34 35 36 37 38 39 43 44 45 46 47 
 48 49 51 52 53 54 55 57 59 60 61 62 
 63 64 65 66 67 68 69 70 72 73 74 75 
 77 
 69 
 1 2 3 4 5 6 7 8 9 11 12 13 
 14 15 16 19 20 21 22 23 24 25 26 28 
 29 30 31 32 33 34 35 36 37 38 39 40 
 41 42 43 44 45 46 47 48 49 50 51 52 
 53 55 57 58 59 60 62 63 64 65 66 67 
 68 69 70 72 74 75 76 77 78 
 6 
 16 17 44 53 58 64 
 46 
 1 2 4 5 7 8 12 15 18 20 21 23 
 24 25 26 27 30 31 32 34 37 39 40 41 
 43 44 45 46 47 48 50 51 52 54 57 58 
 60 62 64 66 67 69 71 73 75 78 
 51 
 2 5 6 7 8 9 10 11 12 13 14 15 
 17 18 19 21 22 25 27 28 31 32 33 36 
 38 41 44 46 47 48 50 51 52 53 54 56 
 57 58 59 60 61 63 65 66 68 69 71 72 
 73 74 77 
 69 
 1 2 3 4 5 6 7 8 9 10 12 13 
 15 16 17 18 19 20 22 23 24 25 26 28 
 29 30 31 32 33 34 35 36 38 39 40 41 
 42 43 46 47 48 49 50 51 52 53 55 56 
 57 58 59 60 61 63 64 65 66 67 68 69 
 70 71 72 73 74 75 76 77 78 
 11 
 6 7 24 40 47 51 53 55 64 70 75 
 55 
 1 3 4 5 6 7 8 9 11 13 14 15 
 16 17 18 20 21 22 24 25 26 28 29 30 
 31 34 37 38 40 41 42 44 45 48 50 51 
 52 54 55 56 57 58 59 61 64 65 67 68 
 70 72 73 74 76 77 78 
 43 
 1 4 7 11 12 16 17 18 20 21 22 23 
 24 26 27 29 30 31 36 37 38 41 44 45 
 46 48 51 52 53 56 57 59 60 61 62 64 
 65 67 68 70 71 72 77 
 74 
 1 2 3 4 5 6 7 8 9 10 11 13 
 14 15 16 17 18 19 20 21 22 23 24 25 
 26 27 28 29 30 31 32 33 35 37 38 39 
 40 41 42 43 44 45 46 47 48 49 50 51 
 52 53 54 56 57 58 59 60 61 62 63 64 
 65 66 67 68 69 70 71 72 73 74 75 76 
 77 78 
 6 
 4 13 16 37 48 56 
 40 
 2 4 6 7 10 11 13 14 17 18 19 20 
 24 25 28 32 33 35 36 37 40 41 43 44 
 45 49 50 51 52 56 58 60 61 63 65 71 
 72 73 75 77 
 19 
 2 3 6 10 20 22 25 29 32 35 38 40 
 45 47 49 63 65 74 78 
 11 
 17 22 32 35 36 41 42 45 58 67 75 
 53 
 1 3 6 7 8 9 10 11 12 13 14 16 
 17 18 19 20 21 25 26 27 29 31 32 35 
 36 37 38 42 43 45 46 47 48 49 50 51 
 52 53 54 56 57 62 64 65 67 69 71 72 
 73 74 75 77 78 
 53 
 1 3 4 7 8 9 11 12 13 15 16 17 
 18 21 29 31 33 34 35 37 38 39 40 41 
 42 43 44 45 46 47 48 50 52 54 55 56 
 57 58 59 62 63 64 65 66 67 68 69 70 
 71 72 73 76 78 
 25 
 1 3 4 5 7 11 13 15 17 21 22 25 
 27 29 30 31 32 37 39 41 55 66 68 71 
 75 
 76 
 1 2 3 4 5 6 7 8 9 10 11 12 
 13 14 15 16 17 18 19 20 21 23 24 25 
 26 27 28 30 31 32 33 34 35 36 37 38 
 39 40 41 42 43 44 45 46 47 48 49 50 
 51 52 53 54 55 56 57 58 59 60 61 62 
 63 64 65 66 67 68 69 70 71 72 73 74 
 75 76 77 78 
 65 
 1 2 3 5 6 7 8 9 10 11 12 13 
 14 15 16 17 18 19 20 21 22 25 26 27 
 28 29 30 31 32 33 34 35 37 39 40 41 
 42 43 44 45 47 50 51 52 54 55 56 57 
 58 60 61 63 64 65 66 67 69 70 71 72 
 73 74 75 76 77 
 66 
 1 2 3 4 7 8 9 10 12 13 14 15 
 17 18 19 20 21 22 23 24 25 26 27 29 
 30 31 32 33 34 35 38 41 42 43 45 46 
 47 48 49 50 51 52 53 54 55 56 57 58 
 59 60 61 62 63 65 66 67 68 70 71 72 
 73 74 75 76 77 78 
 54 
 2 3 4 5 6 8 11 13 14 16 17 18 
 19 20 21 22 24 25 26 27 30 32 35 36 
 37 38 40 41 42 43 44 45 46 48 50 51 
 52 55 56 57 58 59 60 63 65 67 69 70 
 72 73 75 76 77 78 
 2 
 14 50 
 42 
 1 2 3 7 10 11 14 15 16 18 19 23 
 24 25 26 28 30 31 33 35 37 39 40 41 
 44 45 46 47 48 51 52 53 54 56 58 59 
 60 63 64 67 68 74 
 24 
 4 6 13 14 16 23 24 25 26 28 31 33 
 34 37 43 49 51 56 59 68 71 74 75 76 
 32 
 2 5 7 8 17 20 22 23 24 26 31 34 
 36 38 39 42 50 53 54 55 56 58 60 64 
 65 67 68 69 70 71 73 77 
 6 
 2 3 7 15 19 58 
 26 
 6 13 16 18 19 21 22 28 29 32 35 40 
 42 44 45 49 53 58 63 64 65 66 67 68 
 76 78 
 8 
 14 24 28 36 43 44 45 55 
 77 
 1 2 3 4 5 6 7 8 9 10 11 12 
 13 14 15 16 17 18 19 20 21 22 23 24 
 25 26 27 28 29 30 31 32 33 34 35 36 
 37 38 39 40 41 42 43 44 45 46 47 48 
 49 50 51 52 53 54 55 56 57 58 59 60 
 61 62 63 64 65 66 67 68 69 70 71 72 
 74 75 76 77 78 
 46 
 3 4 5 6 7 8 9 11 13 14 16 17 
 18 19 20 22 28 29 30 35 36 37 38 40 
 41 42 43 47 49 51 54 55 59 60 61 62 
 63 64 65 66 69 70 73 74 75 77 
 46 
 1 2 4 5 7 8 9 10 13 15 19 22 
 24 26 27 28 32 34 35 36 38 39 40 41 
 42 43 44 45 47 48 49 51 58 59 60 61 
 62 65 67 68 69 71 74 75 77 78 
 45 
 1 2 3 4 6 8 11 13 14 15 17 18 
 19 27 28 31 32 33 40 41 43 45 47 48 
 49 50 53 55 56 57 58 59 60 61 62 64 
 65 66 67 70 74 75 76 77 78 
 34 
 1 2 3 5 6 7 12 13 15 17 21 23 
 31 33 34 35 40 41 42 46 47 48 51 54 
 57 58 59 61 62 65 68 70 76 77 
 51 
 1 2 3 4 5 7 8 9 10 12 13 15 
 16 18 20 22 23 25 26 27 29 30 32 33 
 34 36 39 40 41 42 44 46 47 48 49 51 
 54 55 56 57 58 59 61 63 64 65 69 70 
 72 73 76 
 17 
 1 5 12 13 17 25 31 42 43 44 45 49 
 53 55 61 68 77 
 54 
 2 4 5 6 7 8 11 13 15 16 18 19 
 21 22 23 24 25 27 28 31 33 34 35 36 
 37 40 42 43 44 46 47 48 50 51 52 53 
 56 57 58 59 60 61 62 64 65 68 69 70 
 71 73 74 75 76 78 
 64 
 1 3 4 5 6 9 10 11 12 13 14 15 
 17 19 20 21 23 24 25 26 27 28 29 30 
 31 33 34 35 36 37 38 39 40 42 43 44 
 46 48 50 51 52 53 54 56 57 58 59 61 
 62 63 64 66 67 68 69 70 71 72 73 74 
 75 76 77 78 
 5 
 4 11 15 16 38 
 73 
 1 2 4 5 6 7 8 9 10 11 12 13 
 14 15 16 17 18 19 20 21 22 23 24 25 
 26 28 29 30 31 32 33 34 36 37 38 39 
 40 41 42 44 45 46 47 49 50 51 52 53 
 54 55 56 57 58 59 60 61 62 63 64 65 
 66 67 68 69 70 71 72 73 74 75 76 77 
 78 
 13 
 5 10 13 18 23 46 47 57 58 60 62 69 
 73 
 42 
 2 3 4 5 9 13 14 16 17 19 20 25 
 26 31 34 37 38 39 40 41 44 45 48 49 
 50 51 52 53 54 58 59 60 63 65 66 68 
 71 72 73 75 76 77 
 49 
 2 3 4 5 6 9 10 11 12 14 15 16 
 20 22 25 26 29 30 31 32 33 34 36 37 
 40 41 43 45 46 48 49 50 51 52 54 55 
 58 60 61 65 66 67 68 70 71 74 75 76 
 77 
 10 
 2 3 13 15 25 26 31 51 65 76 
 26 
 2 8 11 14 17 18 19 23 24 25 28 31 
 37 40 44 50 56 57 58 62 63 66 70 74 
 77 78 
 33 
 2 5 7 8 11 17 20 23 24 26 27 30 
 32 36 38 39 42 43 46 52 53 54 56 58 
 60 63 65 66 67 71 74 75 77 
 10 
 1 5 13 19 43 48 56 64 65 66 
 76 
 1 2 3 4 5 6 7 8 9 10 11 12 
 13 14 15 16 17 18 20 21 22 23 24 25 
 26 27 28 29 30 31 32 33 34 35 36 37 
 38 39 40 41 42 43 44 45 46 47 48 49 
 50 51 52 54 55 56 57 58 59 60 61 62 
 63 64 65 66 67 68 69 70 71 72 73 74 
 75 76 77 78 
 38 
 1 7 11 12 15 17 18 20 23 24 25 26 
 27 28 31 32 33 35 39 41 42 44 45 49 
 51 53 54 55 57 59 62 63 65 67 69 70 
 74 76 
 44 
 1 2 6 8 13 18 20 22 25 26 27 28 
 30 32 33 34 39 41 45 46 47 48 49 51 
 52 53 55 57 58 60 61 64 66 67 68 69 
 70 71 72 73 74 75 76 77 
 8 
 3 5 16 23 25 57 59 65 
 59 
 1 3 4 5 6 7 8 10 12 14 15 16 
 18 19 20 21 22 23 26 27 28 30 32 33 
 34 37 38 39 40 41 42 43 44 45 46 47 
 48 50 51 52 53 55 57 58 60 62 63 64 
 65 66 67 68 69 70 72 73 75 76 77 
 72 
 1 2 4 5 6 7 8 9 10 11 13 14 
 15 16 17 18 19 20 21 22 23 24 25 26 
 27 28 29 30 31 32 33 34 35 36 38 39 
 41 42 43 44 45 46 47 48 49 50 51 52 
 53 54 55 56 57 58 59 60 61 62 63 64 
 65 66 67 68 69 70 71 72 73 74 75 77 
 32 
 2 3 8 9 14 17 18 20 21 26 30 31 
 37 38 41 42 43 44 45 46 48 50 55 62 
 65 70 71 73 74 75 77 78 
 53 
 1 2 3 4 5 6 7 8 9 11 14 17 
 18 20 21 23 26 27 28 32 33 36 38 39 
 40 41 42 43 44 45 49 50 53 55 56 57 
 58 59 60 61 63 65 66 67 68 69 70 72 
 73 74 75 76 78 
 52 
 1 2 3 4 5 6 10 11 13 15 16 20 
 21 22 23 27 28 29 30 32 33 35 36 37 
 38 39 40 41 42 43 44 48 49 53 54 55 
 56 57 58 59 61 64 65 66 67 68 70 72 
 73 74 75 78 
 15 
 1 8 9 17 27 28 29 32 35 43 45 46 
 51 52 57 
 25 
 1 2 4 5 6 9 10 11 13 18 26 28 
 30 35 37 38 41 42 43 50 57 60 67 75 
 78 
 52 
 2 3 4 5 6 8 9 10 11 13 14 20 
 22 23 24 25 26 27 28 29 30 31 32 33 
 36 37 38 39 42 43 44 47 49 51 52 53 
 55 56 57 58 61 63 68 69 70 71 72 73 
 74 75 76 78 
 69 
 1 2 3 4 5 7 8 9 10 11 12 13 
 14 15 16 17 18 19 20 21 23 24 25 26 
 27 28 29 30 31 35 36 37 38 39 41 42 
 43 44 45 46 47 48 49 50 51 52 53 54 
 56 57 58 59 60 61 62 63 64 66 67 68 
 69 70 71 72 73 75 76 77 78 
 70 
 1 3 4 5 6 7 8 9 10 11 12 13 
 14 15 16 17 18 20 21 22 23 24 25 26 
 27 28 29 30 31 32 33 34 35 36 39 40 
 41 42 43 44 45 46 47 48 50 51 53 54 
 55 57 58 59 60 61 62 63 64 65 66 67 
 68 69 70 71 72 73 74 75 77 78 
 74 
 1 2 3 4 5 6 7 8 9 10 11 13 
 14 15 16 17 18 19 20 21 22 23 24 25 
 26 27 28 29 30 31 32 33 34 35 36 37 
 38 39 41 42 43 44 45 46 47 48 49 50 
 51 52 53 54 55 56 57 58 60 62 63 64 
 65 66 67 68 69 70 71 72 73 74 75 76 
 77 78 
 55 
 1 2 4 6 7 8 9 10 11 12 13 15 
 16 18 19 20 21 22 23 24 25 28 29 30 
 31 34 35 36 37 38 39 44 45 46 48 51 
 53 54 55 56 59 60 62 64 65 66 68 69 
 72 73 74 75 76 77 78 
 51 
 2 3 4 7 8 10 13 16 18 19 20 22 
 23 24 25 26 31 32 33 35 36 37 40 41 
 42 43 44 46 47 48 49 52 53 54 55 56 
 58 59 60 62 65 66 67 68 69 70 71 72 
 73 74 77 
 30 
 3 5 8 10 11 12 14 15 23 24 28 30 
 31 33 40 42 44 45 46 49 50 53 54 56 
 58 59 62 69 73 75 
 77 
 1 2 3 4 5 6 7 8 9 10 11 12 
 13 14 15 16 17 18 19 20 21 22 23 24 
 25 26 27 28 29 30 31 32 33 34 35 36 
 37 38 39 40 41 43 44 45 46 47 48 49 
 50 51 52 53 54 55 56 57 58 59 60 61 
 62 63 64 65 66 67 68 69 70 71 72 73 
 74 75 76 77 78 
 19 
 6 12 13 15 17 18 20 25 31 32 41 44 
 49 50 58 59 69 72 78 
 66 
 1 2 3 4 5 6 7 8 10 11 12 13 
 14 15 16 17 18 19 20 21 24 25 26 27 
 28 30 31 32 35 36 39 40 41 42 43 44 
 45 46 47 48 49 50 51 52 53 54 55 56 
 57 58 59 60 61 62 63 64 65 66 69 70 
 72 73 74 75 76 77 
 10 
 3 6 18 37 54 55 56 60 66 67 
 58 
 1 2 3 4 7 9 10 12 16 17 18 19 
 20 21 23 24 25 26 27 28 29 30 31 32 
 33 35 37 38 39 40 41 42 44 46 48 49 
 51 52 53 54 55 56 57 60 61 62 63 64 
 65 66 67 70 71 72 73 74 75 77 
 49 
 1 2 3 4 6 9 10 11 13 14 15 16 
 17 18 21 23 24 25 26 27 29 32 33 35 
 36 37 38 39 41 43 44 45 49 50 51 53 
 55 58 59 60 63 64 65 67 70 71 72 73 
 78 
 52 
 2 3 4 5 6 7 8 9 12 13 14 16 
 18 19 20 23 24 26 28 29 30 33 37 40 
 41 42 43 45 47 49 50 51 53 54 55 56 
 58 59 61 62 63 64 66 68 69 70 71 73 
 74 75 76 77 
 40 
 4 7 8 9 10 11 15 17 18 19 20 21 
 22 23 26 28 29 30 31 32 34 35 36 38 
 39 42 43 44 47 48 54 59 65 66 67 68 
 73 74 76 78 
 25 
 2 3 5 7 15 19 21 23 26 28 31 36 
 37 39 43 44 53 54 59 60 64 66 76 77 
 78 
 16 
 4 10 20 23 28 33 35 38 42 48 61 71 
 73 74 76 77 
 37 
 1 4 6 10 14 16 18 19 20 21 22 24 
 28 29 31 37 39 40 41 42 43 47 51 53 
 55 57 59 61 63 67 68 70 72 74 75 76 
 78 
 72 
 1 2 3 4 5 6 7 8 9 10 11 12 
 13 14 15 16 17 18 19 20 21 22 23 24 
 25 28 29 30 31 32 33 34 36 37 38 39 
 41 42 43 44 45 46 48 49 50 51 52 53 
 54 55 56 57 58 60 61 62 63 64 65 66 
 67 68 69 70 71 72 73 74 75 76 77 78 
 29 
 2 5 10 11 16 18 21 24 26 28 29 32 
 33 35 41 46 49 50 52 53 58 60 62 65 
 67 68 70 71 78 
 24 
 1 4 11 13 14 17 26 27 28 34 35 38 
 41 42 43 57 60 62 65 69 73 75 76 78 
 67 
 1 2 3 4 5 6 7 8 9 10 11 12 
 13 14 15 16 17 18 19 20 21 22 23 24 
 25 26 27 28 29 30 32 33 34 37 38 39 
 40 42 43 44 45 46 47 48 49 51 52 53 
 54 55 57 58 60 61 62 63 65 66 67 68 
 69 71 72 74 75 76 77 
 54 
 2 5 7 8 9 10 13 14 15 16 17 19 
 20 21 23 24 26 27 28 31 32 34 35 37 
 38 39 40 41 42 43 44 46 47 50 51 52 
 54 55 58 59 60 61 62 65 66 67 68 69 
 70 72 74 75 76 78 
 53 
 1 2 4 5 7 8 9 11 12 13 14 16 
 18 19 20 21 22 23 26 27 28 30 32 33 
 36 37 40 42 43 44 45 46 47 48 49 50 
 52 54 58 60 61 62 63 64 65 66 67 69 
 72 73 75 77 78 
 54 
 2 3 5 6 7 8 10 11 12 13 14 18 
 20 21 22 23 24 25 26 30 31 32 33 34 
 36 37 39 40 41 42 45 46 47 48 49 50 
 51 52 53 54 61 62 63 64 65 66 67 68 
 70 71 72 74 75 76 
 39 
 1 3 8 11 13 16 17 20 21 22 23 24 
 26 27 30 31 38 39 40 41 42 44 45 46 
 48 49 52 53 55 56 57 58 63 64 66 73 
 74 75 78 
 54 
 2 4 5 6 7 8 9 10 12 13 14 15 
 16 17 18 20 21 22 24 25 27 28 29 31 
 32 33 34 36 38 39 42 43 45 47 48 49 
 50 51 52 53 54 57 59 61 64 65 66 67 
 68 69 73 74 75 76 
 73 
 1 2 3 5 6 7 8 9 10 11 12 13 
 14 15 16 18 19 20 21 22 24 25 26 27 
 28 29 30 31 32 33 34 35 36 37 38 39 
 40 41 42 43 44 45 46 47 48 49 50 51 
 52 53 54 55 56 57 58 59 60 61 62 63 
 64 65 66 67 69 70 71 72 73 75 76 77 
 78 
 6 
 6 12 48 55 58 65 
 26 
 2 4 6 9 10 12 14 20 21 22 24 27 
 28 31 34 36 37 38 39 44 45 53 60 64 
 66 69 
 39 
 1 3 4 7 10 11 13 14 15 16 17 18 
 21 22 23 24 25 26 27 28 32 36 41 43 
 44 45 46 47 48 49 50 52 53 57 63 65 
 67 70 78 
 66 
 1 3 5 6 7 8 9 10 11 12 13 14 
 15 16 17 18 19 20 21 22 23 24 26 27 
 28 29 30 32 33 34 35 36 37 38 39 41 
 42 44 45 46 48 49 50 51 52 53 55 56 
 57 58 59 62 63 64 65 66 67 68 69 71 
 72 73 74 75 77 78 
 2 
 5 58 
 17 
 3 10 11 13 18 19 20 22 28 31 38 40 
 42 51 60 64 73 
 48 
 2 4 6 9 11 12 13 16 17 18 20 23 
 24 25 28 29 30 31 32 33 34 36 38 40 
 42 43 44 45 46 47 50 51 52 53 54 57 
 58 61 63 64 65 66 67 68 69 70 71 74 
 50 
 1 2 3 5 6 7 8 9 10 13 15 16 
 18 21 22 23 24 25 26 27 29 30 31 32 
 33 35 36 38 40 43 45 47 48 49 52 54 
 58 60 64 65 66 67 68 70 71 72 73 74 
 77 78 
 53 
 1 3 4 5 6 7 11 12 13 14 15 16 
 17 22 23 24 26 27 28 29 30 31 33 35 
 36 39 41 43 44 45 47 49 50 51 52 54 
 55 58 59 60 61 62 63 64 65 66 67 68 
 70 73 76 77 78 
 41 
 3 7 8 10 11 12 14 15 17 21 23 26 
 27 29 31 33 34 35 36 37 41 45 46 47 
 48 49 51 52 53 55 58 60 61 62 63 64 
 65 68 72 74 76 
 51 
 1 2 3 4 5 9 11 12 13 14 15 18 
 19 21 22 23 25 27 30 31 32 34 37 38 
 39 41 42 43 44 45 46 47 49 50 51 53 
 54 59 60 62 64 66 68 69 70 71 72 74 
 75 77 78 
 5 
 3 10 16 22 78 
 64 
 1 2 3 4 5 6 7 8 9 10 11 12 
 13 14 16 17 18 19 20 21 22 23 24 27 
 28 29 30 31 32 33 35 36 38 39 41 42 
 43 44 46 47 48 51 52 53 54 55 56 57 
 58 59 62 63 65 66 67 68 69 70 72 73 
 74 75 76 78 
 46 
 2 3 4 5 6 8 9 10 14 16 17 18 
 21 24 25 27 28 33 34 36 37 40 41 42 
 45 46 47 48 49 53 55 56 57 58 59 61 
 62 64 65 66 68 69 70 72 76 78 
 32 
 2 3 4 6 8 10 13 17 22 24 25 26 
 28 29 33 35 38 39 44 45 46 48 50 52 
 61 66 69 70 71 72 73 77 
 16 
 2 3 4 9 11 15 18 19 22 25 38 46 
 48 52 69 73 
 65 
 1 2 3 4 5 6 7 8 9 12 13 14 
 15 16 17 19 20 21 22 23 24 25 26 27 
 28 29 30 32 33 34 36 37 39 40 41 42 
 43 44 45 46 47 48 49 50 52 53 54 55 
 56 57 59 60 61 62 63 64 65 66 67 68 
 69 70 72 76 78 
 53 
 1 4 7 8 9 10 11 12 13 15 16 17 
 18 21 22 24 25 26 27 28 29 30 32 34 
 36 37 38 40 42 43 44 46 47 48 49 50 
 52 53 54 55 57 58 59 62 63 65 66 67 
 68 69 71 76 77 
 58 
 1 3 4 5 7 8 9 11 12 13 14 15 
 16 17 19 20 23 24 25 28 29 30 31 33 
 34 36 37 38 40 41 42 43 44 45 46 47 
 48 49 50 52 55 56 57 58 60 61 62 63 
 64 66 67 68 70 71 73 74 75 78 
 69 
 1 2 3 4 7 8 9 10 11 12 13 14 
 16 17 18 20 21 23 26 27 28 29 30 31 
 32 33 34 35 36 37 38 39 40 41 42 43 
 44 45 46 47 48 49 50 51 52 54 55 56 
 57 58 59 61 62 63 64 65 66 67 68 69 
 70 71 72 73 74 75 76 77 78 
 26 
 1 3 5 7 11 13 17 18 21 24 25 27 
 31 33 34 35 37 38 40 43 46 51 53 56 
 59 62 
 24 
 1 16 20 22 28 31 33 35 36 37 38 42 
 55 56 57 60 63 69 72 73 75 76 77 78 
 10 
 2 4 17 20 24 33 35 45 77 78 
 10 
 24 30 41 52 54 55 61 63 67 75 
 42 
 2 4 5 7 9 10 14 17 19 22 23 25 
 27 29 32 34 35 38 39 42 44 45 46 47 
 48 49 51 52 53 55 57 59 61 62 64 67 
 68 70 72 75 76 78 
 5 
 8 17 35 40 78 
 36 
 3 5 7 8 9 12 14 15 16 18 20 21 
 22 24 31 32 37 39 44 46 48 50 51 52 
 53 54 59 60 62 65 67 71 73 74 75 77 
 27 
 2 7 8 9 13 14 15 17 20 25 31 42 
 43 46 49 50 51 53 54 55 62 63 72 74 
 75 76 77 
 19 
 1 3 8 19 24 29 31 39 42 46 47 49 
 53 62 63 66 67 70 71 
 77 
 1 3 4 5 6 7 8 9 10 11 12 13 
 14 15 16 17 18 19 20 21 22 23 24 25 
 26 27 28 29 30 31 32 33 34 35 36 37 
 38 39 40 41 42 43 44 45 46 47 48 49 
 50 51 52 53 54 55 56 57 58 59 60 61 
 62 63 64 65 66 67 68 69 70 71 72 73 
 74 75 76 77 78 
 75 
 1 2 4 5 6 7 8 9 10 11 12 13 
 14 15 16 17 18 19 20 21 22 23 24 25 
 26 27 28 29 30 31 32 33 34 35 36 37 
 38 39 40 41 42 43 44 45 46 47 48 49 
 50 51 52 53 54 55 56 57 58 59 60 61 
 62 63 64 65 66 67 68 69 70 71 72 74 
 76 77 78 
 21 
 7 11 19 26 29 30 36 38 41 43 44 45 
 51 53 54 55 57 63 69 73 75 
 58 
 1 2 3 5 6 8 11 12 13 14 15 16 
 17 18 19 20 22 23 25 26 27 28 29 31 
 33 34 35 36 37 38 41 43 44 45 46 47 
 48 49 50 51 52 54 56 57 58 59 62 63 
 64 66 67 70 72 73 75 76 77 78 
 49 
 3 4 5 8 9 10 11 15 17 18 19 20 
 21 23 24 27 29 31 32 33 34 35 36 38 
 40 42 46 49 50 51 52 53 55 56 57 58 
 60 63 64 66 67 68 70 71 72 74 75 77 
 78 
 34 
 1 2 3 8 10 11 12 13 14 16 20 24 
 27 29 30 34 35 37 43 46 48 51 52 53 
 56 59 61 67 68 71 74 75 77 78 
 40 
 1 3 4 5 8 11 16 17 18 20 30 33 
 34 36 38 39 41 43 45 47 49 50 51 53 
 56 59 60 64 65 66 68 69 70 71 73 74 
 75 76 77 78 
 17 
 4 5 6 7 10 16 18 28 31 34 37 40 
 56 64 65 68 78 
 47 
 1 2 3 5 6 7 8 9 11 14 15 16 
 17 21 22 24 25 26 28 29 31 32 33 36 
 38 40 47 50 51 52 53 54 57 58 59 62 
 65 67 68 69 70 71 72 73 74 75 77 
 59 
 1 2 4 5 6 7 9 10 11 12 13 14 
 15 17 18 19 20 21 24 25 26 27 29 30 
 31 32 33 34 35 36 37 39 41 42 43 44 
 45 46 48 50 53 54 56 57 58 59 60 61 
 63 65 66 67 69 70 72 73 74 76 77 
 55 
 2 3 5 6 7 8 9 10 11 13 14 15 
 17 18 20 21 22 23 24 25 27 28 29 30 
 31 32 33 34 35 36 38 39 40 42 43 44 
 45 46 47 49 50 52 55 56 57 59 60 63 
 65 67 68 71 72 74 78 
 16 
 6 9 11 18 22 25 35 47 50 54 56 60 
 61 65 74 76 
 8 
 18 28 31 38 55 64 70 71 
 72 
 1 2 3 4 5 6 7 8 9 10 11 12 
 13 14 15 16 18 19 20 21 22 23 24 25 
 26 27 28 29 30 31 32 34 35 36 37 38 
 39 41 42 43 44 45 46 47 48 49 50 51 
 52 53 54 55 56 58 59 60 61 62 63 64 
 65 67 68 69 71 72 73 74 75 76 77 78 
 2 
 47 73 
 8 
 9 22 33 44 50 51 52 77 
 64 
 2 3 5 6 7 8 9 10 11 12 13 14 
 15 16 17 18 20 22 23 24 25 27 28 29 
 30 31 32 33 34 35 37 38 40 41 42 43 
 45 46 47 48 49 51 52 53 54 56 58 59 
 61 62 63 64 66 67 68 69 70 71 73 74 
 75 76 77 78 
 71 
 2 3 4 5 6 7 8 9 10 11 12 13 
 14 15 16 19 20 21 22 23 25 26 27 28 
 29 30 31 32 33 34 35 36 37 38 39 40 
 41 42 43 44 45 46 47 49 50 51 53 54 
 55 56 57 58 59 61 62 63 64 65 66 67 
 68 69 70 71 72 73 74 75 76 77 78 
 75 
 1 2 3 4 5 6 7 8 9 10 11 12 
 13 14 15 16 17 18 19 20 21 22 23 24 
 25 26 27 28 29 30 31 32 33 34 35 36 
 37 38 39 40 41 42 43 44 45 46 47 48 
 49 50 51 52 53 54 55 56 57 58 59 60 
 61 63 64 65 66 67 68 69 71 72 73 75 
 76 77 78 
 45 
 2 6 8 9 10 11 12 13 15 16 18 19 
 20 21 24 25 26 27 29 30 31 33 35 37 
 39 40 41 43 45 46 47 48 51 52 53 54 
 58 64 67 68 69 71 72 73 77 
 49 
 2 3 4 5 6 7 9 10 11 12 14 18 
 20 23 25 26 27 29 31 32 33 34 35 37 
 38 39 41 43 44 45 48 50 51 54 55 58 
 60 64 65 66 67 68 69 70 72 74 75 76 
 77 
 73 
 1 2 3 4 5 6 7 8 9 10 11 12 
 13 14 15 16 17 18 19 20 21 22 23 24 
 25 26 27 28 29 30 31 32 35 36 37 38 
 39 40 41 42 43 44 45 46 47 48 49 50 
 51 52 53 54 55 56 57 58 59 60 63 64 
 65 66 67 68 69 70 71 72 74 75 76 77 
 78 
 60 
 1 2 4 6 7 8 9 11 12 13 14 15 
 16 19 20 21 22 23 24 25 26 27 29 30 
 31 34 35 37 38 39 40 41 42 43 44 45 
 46 47 48 50 51 52 55 56 57 58 59 60 
 61 62 63 64 65 66 68 69 70 71 72 76 
 19 
 1 7 9 10 14 18 19 20 26 29 37 39 
 41 46 58 59 65 70 71 
 12 
 5 12 35 39 45 46 47 57 61 65 69 78 
 42 
 1 3 5 8 11 13 15 16 20 22 23 24 
 25 26 27 29 30 33 34 35 36 37 39 40 
 41 42 43 48 50 51 55 58 59 61 63 66 
 67 68 70 74 76 77 
 21 
 1 7 11 12 18 32 37 38 40 43 47 52 
 53 58 61 62 63 67 70 72 77 
 61 
 1 2 3 4 5 6 7 9 10 11 12 13 
 14 15 16 19 22 23 25 26 28 29 30 31 
 32 33 34 35 36 37 42 43 44 45 46 47 
 48 49 50 52 53 54 55 56 57 59 61 65 
 66 67 68 69 70 71 72 73 74 75 76 77 
 78 
 40 
 1 2 3 5 8 9 10 12 13 14 16 18 
 25 26 27 28 32 33 35 40 42 46 47 51 
 54 55 56 57 58 59 60 63 67 68 69 71 
 73 74 75 76 
 62 
 1 2 3 4 6 7 9 11 12 13 14 15 
 16 17 19 20 22 23 24 25 26 27 28 30 
 31 32 33 34 35 36 38 40 42 45 46 47 
 48 49 50 52 53 54 56 57 58 59 60 61 
 63 64 66 67 68 69 70 72 73 74 75 76 
 77 78 
 56 
 1 3 4 5 9 10 12 13 14 16 17 19 
 20 21 22 24 25 27 30 31 32 33 34 35 
 36 37 38 40 41 42 43 44 45 46 48 49 
 50 52 53 54 55 56 57 58 59 61 63 66 
 67 68 69 71 74 75 76 77 
 19 
 7 11 12 15 19 23 24 26 33 43 45 49 
 51 54 62 66 71 75 76 
 55 
 1 2 3 4 5 6 7 8 9 15 16 17 
 18 19 20 21 23 24 25 27 28 31 33 36 
 37 38 40 41 42 43 44 45 46 48 49 50 
 51 52 53 54 55 56 57 58 60 61 62 63 
 65 66 68 69 70 74 77 
 50 
 1 6 7 9 11 12 13 15 17 18 19 20 
 22 25 26 28 29 30 32 34 35 36 37 39 
 40 42 43 45 47 50 51 52 53 54 57 58 
 59 60 61 62 63 64 66 67 69 72 73 76 
 77 78 
 10 
 7 21 25 27 32 36 38 40 45 55 
 15 
 1 6 8 15 23 25 30 32 44 47 49 50 
 55 65 77 
 59 
 1 2 4 5 7 9 10 12 13 14 16 17 
 18 19 20 23 24 25 26 27 28 29 31 32 
 33 35 36 37 39 40 41 44 45 46 47 49 
 50 51 52 53 54 55 56 57 60 62 63 64 
 65 66 67 68 69 70 71 73 75 77 78 
 3 
 5 53 66 
 31 
 1 2 3 4 5 6 9 11 13 18 19 23 
 25 26 30 31 33 35 37 47 54 55 59 61 
 64 66 67 73 74 75 77 
 18 
 2 3 4 13 17 19 20 26 28 29 38 41 
 42 44 50 58 74 75 
 9 
 4 5 8 17 28 29 31 42 77 
 9 
 3 4 7 29 30 34 42 49 73 
 27 
 1 4 7 8 11 12 13 15 16 17 26 29 
 31 34 36 38 39 40 41 43 44 48 55 60 
 61 62 66 
 42 
 2 4 6 8 12 15 16 18 20 21 22 23 
 24 26 27 28 30 31 32 33 34 39 40 44 
 45 46 47 48 49 52 54 55 58 59 60 62 
 66 70 71 72 73 74 
 5 
 3 14 22 23 57 
 14 
 2 5 8 12 16 24 31 32 49 57 64 71 
 74 76 
 13 
 9 19 23 27 44 52 58 59 64 65 67 70 
 78 
 18 
 15 17 23 26 28 30 34 39 40 43 47 48 
 59 64 65 71 74 78 
 12 
 1 25 28 29 33 37 41 49 56 58 64 67 
 62 
 1 4 5 6 8 10 11 12 13 14 15 17 
 18 19 20 21 22 24 25 26 27 29 30 31 
 33 34 35 36 37 38 39 40 41 42 43 44 
 45 46 47 49 50 51 52 53 55 56 57 59 
 60 62 64 65 66 68 69 71 72 74 75 76 
 77 78 
 71 
 1 2 3 5 6 7 8 9 10 11 12 13 
 14 16 17 18 19 20 21 22 24 25 26 27 
 28 29 30 31 32 33 34 35 36 37 38 39 
 40 41 43 44 45 46 47 48 49 50 51 52 
 53 55 56 57 58 59 60 61 62 63 64 65 
 67 68 69 71 72 73 74 75 76 77 78 
 43 
 2 5 6 8 10 14 15 17 18 19 22 23 
 24 28 31 32 35 36 37 38 39 40 41 43 
 44 45 46 48 51 52 53 55 56 60 62 64 
 65 67 68 69 71 74 76 
 37 
 1 2 4 6 8 12 17 18 20 21 25 26 
 30 31 32 33 36 41 42 45 46 49 50 51 
 54 55 56 58 60 61 62 64 70 71 72 74 
 77 
 43 
 1 4 7 9 14 15 16 19 20 25 26 28 
 30 31 32 35 36 37 39 41 42 46 47 49 
 50 51 52 56 58 59 61 62 63 64 66 68 
 70 71 73 74 76 77 78 
 36 
 2 4 6 7 8 10 12 15 17 20 23 25 
 26 28 31 33 34 40 42 45 46 48 50 52 
 54 55 58 60 63 66 68 71 72 73 74 78 
 62 
 1 2 3 5 7 8 9 10 12 13 14 16 
 17 19 20 21 22 24 28 29 30 31 33 34 
 35 36 38 40 41 42 44 45 46 47 48 49 
 50 51 52 53 54 55 56 57 58 59 60 61 
 62 63 64 66 67 69 70 71 72 74 75 76 
 77 78 
 22 
 1 6 9 25 26 29 30 39 44 45 46 47 
 48 53 62 66 67 70 72 74 75 78 
 11 
 1 6 13 17 24 31 35 40 56 70 71 
 78 
 1 2 3 4 5 6 7 8 9 10 11 12 
 13 14 15 16 17 18 19 20 21 22 23 24 
 25 26 27 28 29 30 31 32 33 34 35 36 
 37 38 39 40 41 42 43 44 45 46 47 48 
 49 50 51 52 53 54 55 56 57 58 59 60 
 61 62 63 64 65 66 67 68 69 70 71 72 
 73 74 75 76 77 78 
 66 
 1 2 3 4 5 6 7 8 9 10 11 12 
 13 14 15 16 17 18 20 21 22 23 24 25 
 27 30 31 32 33 34 35 36 38 39 40 41 
 42 44 47 48 49 50 51 52 54 56 57 58 
 59 60 61 62 63 64 65 66 67 68 69 70 
 71 72 73 74 75 76 
 9 
 14 15 32 39 50 52 54 68 71 
 67 
 1 2 3 4 5 6 7 9 10 11 12 13 
 14 15 17 18 20 21 22 23 25 27 28 29 
 30 31 32 33 34 35 37 38 40 42 43 44 
 45 47 48 49 50 51 52 53 55 56 57 58 
 59 60 62 63 64 65 66 67 68 69 70 71 
 72 73 74 75 76 77 78 
 15 
 10 11 13 20 31 38 39 45 52 59 61 63 
 69 75 77 
 65 
 1 3 5 6 7 8 9 10 11 12 13 14 
 15 17 18 19 20 21 22 23 24 26 27 28 
 29 30 32 33 34 35 36 37 38 39 41 42 
 44 47 48 49 50 51 53 54 55 56 57 58 
 60 61 62 63 64 65 66 67 68 69 71 72 
 74 75 76 77 78 
 30 
 3 5 10 11 12 13 14 21 22 23 30 31 
 32 37 39 40 41 42 44 46 47 50 54 58 
 59 61 65 68 71 74 
 61 
 1 2 4 7 8 9 10 11 12 13 14 15 
 16 17 18 20 21 22 23 24 25 26 29 30 
 31 32 33 36 38 39 41 42 43 44 45 47 
 48 49 50 51 52 53 54 55 56 57 58 59 
 60 62 63 64 65 66 68 69 71 72 73 74 
 78 
 73 
 1 2 3 4 5 6 7 8 9 10 11 12 
 13 14 15 16 17 18 19 20 21 22 23 24 
 25 26 27 28 29 30 32 33 34 35 36 38 
 39 40 41 42 43 44 45 46 47 48 49 50 
 51 52 54 55 57 58 59 60 61 62 63 64 
 65 66 67 69 70 71 72 73 74 75 76 77 
 78 
 73 
 1 3 4 5 6 7 8 9 10 11 12 13 
 16 17 18 19 20 21 22 23 24 25 26 27 
 28 29 30 31 32 33 35 36 37 38 39 40 
 41 42 43 44 45 46 47 48 49 50 51 52 
 53 54 55 56 57 58 59 60 61 62 63 64 
 65 66 67 68 69 70 71 72 73 74 75 77 
 78 
 21 
 3 5 6 7 8 15 16 17 22 23 24 31 
 34 48 57 58 62 67 70 72 73 
 65 
 1 2 4 5 6 7 8 9 10 11 12 13 
 14 15 16 17 18 20 21 22 23 24 25 26 
 27 28 29 30 31 32 33 34 35 36 37 38 
 39 41 42 45 51 52 53 54 55 56 57 58 
 59 60 63 64 65 66 67 68 69 70 71 72 
 73 74 75 76 77 
 23 
 9 11 12 18 19 20 22 31 35 38 41 43 
 45 53 56 57 58 59 65 68 71 77 78 
 49 
 4 5 7 8 9 11 13 16 17 18 23 24 
 25 26 28 30 31 32 33 34 35 36 37 38 
 39 40 42 43 45 47 48 49 52 53 54 55 
 56 59 62 64 65 66 68 71 73 74 75 77 
 78 
 14 
 1 9 23 27 38 41 42 44 49 57 59 65 
 74 75 
 26 
 2 3 9 11 12 14 17 18 19 20 25 27 
 29 35 36 39 46 48 49 52 69 71 72 73 
 74 76 
 